0 0 2 0
2 0 2 1
0 1 0 1
1 0 1 0
1 1 2 8
4 0 2 13
5 0 1 8
2 1 3 6
5 1 3 11
3 0 1 11
2 2 5 10
3 1 0 16
4 1 1 22
5 2 5 18
2 3 0 21
1 2 4 13
5 3 0 30
3 2 2 22
4 2 4 25
0 2 1 25
3 3 3 27
2 4 1 31
0 3 3 31
3 4 4 30
1 3 5 27
0 4 5 38
1 4 0 40
4 3 5 41
4 4 0 50
2 5 4 38
5 4 4 45
0 5 4 49
1 5 3 50
4 5 3 54
3 5 5 45
5 5 2 49

